; Options: -in -smt2
(set-option :produce-unsat-assumptions true)

(declare-fun start!1123 () Bool)

(assert start!1123)

(declare-fun res!3836 () Bool)

(declare-fun e!2658 () Bool)

(assert (=> start!1123 (=> (not res!3836) (not e!2658))))

(declare-fun jz!67 () (_ BitVec 32))

(declare-datatypes ((array!412 0))(
  ( (array!413 (arr!181 (Array (_ BitVec 32) (_ FloatingPoint 11 53))) (size!181 (_ BitVec 32))) )
))
(declare-fun qq!69 () array!412)

(assert (=> start!1123 (= res!3836 (and (bvsle #b00000000000000000000000000000000 jz!67) (bvslt jz!67 #b00000000000000000000000000010100) (= (size!181 qq!69) #b00000000000000000000000000010100)))))

(assert (=> start!1123 e!2658))

(assert (=> start!1123 true))

(declare-fun array_inv!131 (array!412) Bool)

(assert (=> start!1123 (array_inv!131 qq!69)))

(declare-fun b!4933 () Bool)

(declare-fun res!3837 () Bool)

(assert (=> b!4933 (=> (not res!3837) (not e!2658))))

(declare-fun qqInv!0 (array!412) Bool)

(assert (=> b!4933 (= res!3837 (qqInv!0 qq!69))))

(declare-fun b!4934 () Bool)

(assert (=> b!4934 (= e!2658 (and (fp.leq (fp #b0 #b00000000000 #b0000000000000000000000000000000000000000000000000000) (select (store ((as const (Array (_ BitVec 32) (_ FloatingPoint 11 53))) (fp #b0 #b00000000000 #b0000000000000000000000000000000000000000000000000000)) #b00000000000000000000000000000000 (fp.mul roundNearestTiesToEven (fp #b0 #b01111111111 #b1001001000011111101101000000000000000000000000000000) (select (arr!181 qq!69) #b00000000000000000000000000000000))) #b00000000000000000000000000000000)) (fp.leq (select (store ((as const (Array (_ BitVec 32) (_ FloatingPoint 11 53))) (fp #b0 #b00000000000 #b0000000000000000000000000000000000000000000000000000)) #b00000000000000000000000000000000 (fp.mul roundNearestTiesToEven (fp #b0 #b01111111111 #b1001001000011111101101000000000000000000000000000000) (select (arr!181 qq!69) #b00000000000000000000000000000000))) #b00000000000000000000000000000000) (fp #b0 #b01111111110 #b1001001000011111101100001101101111000000100110000000)) (fp.leq (fp #b0 #b00000000000 #b0000000000000000000000000000000000000000000000000000) (select (store (store ((as const (Array (_ BitVec 32) (_ FloatingPoint 11 53))) (fp #b0 #b00000000000 #b0000000000000000000000000000000000000000000000000000)) #b00000000000000000000000000000000 (fp.mul roundNearestTiesToEven (fp #b0 #b01111111111 #b1001001000011111101101000000000000000000000000000000) (select (arr!181 qq!69) #b00000000000000000000000000000000))) #b00000000000000000000000000000001 (fp.add roundNearestTiesToEven (fp.mul roundNearestTiesToEven (fp #b0 #b01111111111 #b1001001000011111101101000000000000000000000000000000) (select (arr!181 qq!69) #b00000000000000000000000000000001)) (fp.mul roundNearestTiesToEven (fp #b0 #b01111100111 #b0100010001000010110100000000000000000000000000000000) (select (arr!181 qq!69) #b00000000000000000000000000000000)))) #b00000000000000000000000000000001)) (fp.leq (select (store (store ((as const (Array (_ BitVec 32) (_ FloatingPoint 11 53))) (fp #b0 #b00000000000 #b0000000000000000000000000000000000000000000000000000)) #b00000000000000000000000000000000 (fp.mul roundNearestTiesToEven (fp #b0 #b01111111111 #b1001001000011111101101000000000000000000000000000000) (select (arr!181 qq!69) #b00000000000000000000000000000000))) #b00000000000000000000000000000001 (fp.add roundNearestTiesToEven (fp.mul roundNearestTiesToEven (fp #b0 #b01111111111 #b1001001000011111101101000000000000000000000000000000) (select (arr!181 qq!69) #b00000000000000000000000000000001)) (fp.mul roundNearestTiesToEven (fp #b0 #b01111100111 #b0100010001000010110100000000000000000000000000000000) (select (arr!181 qq!69) #b00000000000000000000000000000000)))) #b00000000000000000000000000000001) (fp #b0 #b01111101000 #b0001101000100000100011001001010011001110101111100000)) (fp.leq (fp #b0 #b00000000000 #b0000000000000000000000000000000000000000000000000000) (select (store (store (store ((as const (Array (_ BitVec 32) (_ FloatingPoint 11 53))) (fp #b0 #b00000000000 #b0000000000000000000000000000000000000000000000000000)) #b00000000000000000000000000000000 (fp.mul roundNearestTiesToEven (fp #b0 #b01111111111 #b1001001000011111101101000000000000000000000000000000) (select (arr!181 qq!69) #b00000000000000000000000000000000))) #b00000000000000000000000000000001 (fp.add roundNearestTiesToEven (fp.mul roundNearestTiesToEven (fp #b0 #b01111111111 #b1001001000011111101101000000000000000000000000000000) (select (arr!181 qq!69) #b00000000000000000000000000000001)) (fp.mul roundNearestTiesToEven (fp #b0 #b01111100111 #b0100010001000010110100000000000000000000000000000000) (select (arr!181 qq!69) #b00000000000000000000000000000000)))) #b00000000000000000000000000000010 (fp.add roundNearestTiesToEven (fp.add roundNearestTiesToEven (fp.mul roundNearestTiesToEven (fp #b0 #b01111111111 #b1001001000011111101101000000000000000000000000000000) (select (arr!181 qq!69) #b00000000000000000000000000000010)) (fp.mul roundNearestTiesToEven (fp #b0 #b01111100111 #b0100010001000010110100000000000000000000000000000000) (select (arr!181 qq!69) #b00000000000000000000000000000001))) (fp.mul roundNearestTiesToEven (fp #b0 #b01111001111 #b1000010001101001100010000000000000000000000000000000) (select (arr!181 qq!69) #b00000000000000000000000000000000)))) #b00000000000000000000000000000010)) (fp.leq (select (store (store (store ((as const (Array (_ BitVec 32) (_ FloatingPoint 11 53))) (fp #b0 #b00000000000 #b0000000000000000000000000000000000000000000000000000)) #b00000000000000000000000000000000 (fp.mul roundNearestTiesToEven (fp #b0 #b01111111111 #b1001001000011111101101000000000000000000000000000000) (select (arr!181 qq!69) #b00000000000000000000000000000000))) #b00000000000000000000000000000001 (fp.add roundNearestTiesToEven (fp.mul roundNearestTiesToEven (fp #b0 #b01111111111 #b1001001000011111101101000000000000000000000000000000) (select (arr!181 qq!69) #b00000000000000000000000000000001)) (fp.mul roundNearestTiesToEven (fp #b0 #b01111100111 #b0100010001000010110100000000000000000000000000000000) (select (arr!181 qq!69) #b00000000000000000000000000000000)))) #b00000000000000000000000000000010 (fp.add roundNearestTiesToEven (fp.add roundNearestTiesToEven (fp.mul roundNearestTiesToEven (fp #b0 #b01111111111 #b1001001000011111101101000000000000000000000000000000) (select (arr!181 qq!69) #b00000000000000000000000000000010)) (fp.mul roundNearestTiesToEven (fp #b0 #b01111100111 #b0100010001000010110100000000000000000000000000000000) (select (arr!181 qq!69) #b00000000000000000000000000000001))) (fp.mul roundNearestTiesToEven (fp #b0 #b01111001111 #b1000010001101001100010000000000000000000000000000000) (select (arr!181 qq!69) #b00000000000000000000000000000000)))) #b00000000000000000000000000000010) (fp #b0 #b01111010000 #b1100110001001011101000011101001010011001111110100000)) (bvsge #b00000000000000000000000000000010 (size!181 qq!69))))))

(assert (= (and start!1123 res!3836) b!4933))

(assert (= (and b!4933 res!3837) b!4934))

(declare-fun m!6513 () Bool)

(assert (=> start!1123 m!6513))

(declare-fun m!6515 () Bool)

(assert (=> b!4933 m!6515))

(declare-fun m!6517 () Bool)

(assert (=> b!4934 m!6517))

(declare-fun m!6519 () Bool)

(assert (=> b!4934 m!6519))

(declare-fun m!6521 () Bool)

(assert (=> b!4934 m!6521))

(declare-fun m!6523 () Bool)

(assert (=> b!4934 m!6523))

(declare-fun m!6525 () Bool)

(assert (=> b!4934 m!6525))

(declare-fun m!6527 () Bool)

(assert (=> b!4934 m!6527))

(declare-fun m!6529 () Bool)

(assert (=> b!4934 m!6529))

(declare-fun m!6531 () Bool)

(assert (=> b!4934 m!6531))

(declare-fun m!6533 () Bool)

(assert (=> b!4934 m!6533))

(check-sat (not start!1123) (not b!4933))
(check-sat)
